; 
(set-info :status unknown)
(declare-fun node_0x7ffff39e63f0 () (_ BitVec 1))
(declare-fun node_0x7ffff39e7da0 () (_ BitVec 1))
(declare-fun node_0x7ffff3a370e0 () (_ BitVec 1))
(declare-fun carg_node_0x7ffff39e5050 () (_ BitVec 64))
(declare-fun carg_node_0x7ffff39e55a0 () (_ BitVec 64))
(declare-fun select_0x7ffff3a37b90 () (_ BitVec 64))
(declare-fun iult_0x7ffff3a37260 () (_ BitVec 1))
(declare-fun LdMem_0x7ffff3a36e10 () (_ BitVec 64))
(declare-fun node_0x7ffff3a36c90 () (_ BitVec 64))
(declare-fun parg_node_0x4d45f800 () (_ BitVec 64))
(declare-fun StMem_0x4d45f650 () (_ BitVec 64))
(declare-fun R0x7ffff39e5160 () (_ BitVec 1))
(declare-fun node_0x7ffff3a36310 () (_ BitVec 64))
(declare-fun LdMem_0x7ffff3a36490 () (_ BitVec 64))
(declare-fun parg_node_0x4d460050 () (_ BitVec 64))
(declare-fun StMem_0x4d45fea0 () (_ BitVec 64))
(declare-fun ine_0x7ffff3a356d0 () (_ BitVec 1))
(declare-fun node_0x7ffff3a353e0 () (_ BitVec 32))
(declare-fun zext_0x7ffff3a351e0 () (_ BitVec 32))
(declare-fun node_0x7ffff3a35060 () (_ BitVec 32))
(declare-fun node_0x7ffff3a34400 () (_ BitVec 8))
(declare-fun LdMem_0x7ffff3a34d90 () (_ BitVec 8))
(declare-fun parg_node_0x4d435940 () (_ BitVec 8))
(declare-fun StMem_0x4d435830 () (_ BitVec 8))
(declare-fun node_0x7ffff39e6f40 () (_ BitVec 1))
(declare-fun ine_0x7ffff3a33980 () (_ BitVec 1))
(declare-fun node_0x7ffff3a335b0 () (_ BitVec 64))
(declare-fun and_0x7ffff3a33750 () (_ BitVec 64))
(declare-fun node_0x7ffff3a33240 () (_ BitVec 64))
(declare-fun p2i_0x7ffff3a333b0 () (_ BitVec 64))
(declare-fun ine_0x7ffff3a32ea0 () (_ BitVec 1))
(declare-fun node_0x7ffff3a32550 () (_ BitVec 32))
(declare-fun zext_0x7ffff3a32350 () (_ BitVec 32))
(declare-fun node_0x7ffff3a321d0 () (_ BitVec 32))
(declare-fun node_0x7ffff3a31d80 () (_ BitVec 8))
(declare-fun LdMem_0x7ffff3a31f00 () (_ BitVec 8))
(declare-fun parg_node_0x4d435700 () (_ BitVec 8))
(declare-fun StMem_0x4d4355f0 () (_ BitVec 8))
(declare-fun node_0x7ffff39e6aa0 () (_ BitVec 1))
(declare-fun ine_0x7ffff3a30cc0 () (_ BitVec 1))
(declare-fun node_0x7ffff3a307b0 () (_ BitVec 64))
(declare-fun and_0x7ffff3a30950 () (_ BitVec 64))
(declare-fun node_0x7ffff3a30410 () (_ BitVec 64))
(declare-fun p2i_0x7ffff39ebe00 () (_ BitVec 64))
(declare-fun node_0x7ffff3a37a10 () (_ BitVec 64))
(declare-fun node_0x7ffff39eda50 () (_ BitVec 1))
(declare-fun node_0x7ffff39ee630 () (_ BitVec 1))
(declare-fun node_0x7ffff39f0740 () (_ BitVec 1))
(declare-fun node_0x7ffff39f1400 () (_ BitVec 1))
(declare-fun node_0x7ffff39f2180 () (_ BitVec 1))
(declare-fun node_0x7ffff39f5df0 () (_ BitVec 1))
(declare-fun node_0x7ffff39f6aa0 () (_ BitVec 1))
(declare-fun node_0x7ffff39f9250 () (_ BitVec 1))
(declare-fun node_0x7ffff39f84f0 () (_ BitVec 1))
(declare-fun gep_0x7ffff3a67750 () (_ BitVec 64))
(declare-fun node_0x7ffff3a4e770 () (_ BitVec 64))
(declare-fun ieq_0x7ffff3a4f140 () (_ BitVec 1))
(declare-fun iult_0x7ffff3a441e0 () (_ BitVec 1))
(declare-fun mul_0x7ffff3a43fb0 () (_ BitVec 64))
(declare-fun node_0x7ffff3a418f0 () (_ BitVec 64))
(declare-fun node_0x7ffff3a43e10 () (_ BitVec 64))
(declare-fun node_0x7ffff3a438f0 () (_ BitVec 64))
(declare-fun LdMem_0x7ffff3a43a70 () (_ BitVec 64))
(declare-fun parg_node_0x4d479960 () (_ BitVec 64))
(declare-fun StMem_0x4d479820 () (_ BitVec 64))
(declare-fun islt_0x7ffff3a450e0 () (_ BitVec 1))
(declare-fun iult_0x7ffff3a481c0 () (_ BitVec 1))
(declare-fun node_0x7ffff3a47da0 () (_ BitVec 64))
(declare-fun udiv_0x7ffff3a47f40 () (_ BitVec 64))
(declare-fun node_0x7ffff3a47790 () (_ BitVec 64))
(declare-fun LdMem_0x7ffff3a47910 () (_ BitVec 64))
(declare-fun R0x28f6d490 () (_ BitVec 1))
(declare-fun R0x28f75380 () (_ BitVec 1))
(declare-fun islt_0x7ffff3a4ec30 () (_ BitVec 1))
(declare-fun ieq_0x7ffff3a4f4f0 () (_ BitVec 1))
(declare-fun p2i_0x7ffff3a4e8f0 () (_ BitVec 64))
(declare-fun node_0x7ffff3a34930 () (_ BitVec 64))
(declare-fun LdMem_0x7ffff3a34ad0 () (_ BitVec 64))
(declare-fun parg_node_0x4d45e7e0 () (_ BitVec 64))
(declare-fun StMem_0x4d45e630 () (_ BitVec 64))
(declare-fun parg_node_0x4d45df30 () (_ BitVec 64))
(declare-fun StMem_0x4d45dd80 () (_ BitVec 64))
(declare-fun xor_0x28f75560 () (_ BitVec 1))
(declare-fun islt_0x7ffff3a46ec0 () (_ BitVec 1))
(declare-fun node_0x7ffff3a40cf0 () (_ BitVec 64))
(declare-fun node_0x7ffff3a3bf70 () (_ BitVec 64))
(declare-fun ine_0x7ffff3a41510 () (_ BitVec 1))
(declare-fun node_0x7ffff3a410f0 () (_ BitVec 64))
(declare-fun srem_0x7ffff3a41290 () (_ BitVec 64))
(declare-fun node_0x7ffff3a401e0 () (_ BitVec 64))
(declare-fun add_0x7ffff3a40e60 () (_ BitVec 64))
(declare-fun ine_0x7ffff3a40940 () (_ BitVec 1))
(declare-fun node_0x7ffff3a40550 () (_ BitVec 64))
(declare-fun srem_0x7ffff3a406c0 () (_ BitVec 64))
(declare-fun ashr_0x7ffff3a3ffb0 () (_ BitVec 64))
(declare-fun node_0x7ffff3a3fe10 () (_ BitVec 64))
(declare-fun node_0x7ffff3a3fa90 () (_ BitVec 64))
(declare-fun p2i_0x7ffff3a3fc10 () (_ BitVec 64))
(declare-fun node_0x7ffff3a3f620 () (_ BitVec 64))
(declare-fun LdMem_0x7ffff3a3f7c0 () (_ BitVec 64))
(declare-fun StMem_0x4d45d500 () (_ BitVec 64))
(declare-fun StMem_0x4d45cd60 () (_ BitVec 64))
(declare-fun node_0x7ffff39ecc40 () (_ BitVec 1))
(declare-fun ine_0x7ffff3a3e0c0 () (_ BitVec 1))
(declare-fun node_0x7ffff3a3ddd0 () (_ BitVec 32))
(declare-fun zext_0x7ffff3a3dbd0 () (_ BitVec 32))
(declare-fun node_0x7ffff3a3da50 () (_ BitVec 32))
(declare-fun node_0x7ffff3a3d600 () (_ BitVec 8))
(declare-fun LdMem_0x7ffff3a3d780 () (_ BitVec 8))
(declare-fun node_0x7ffff39ebcb0 () (_ BitVec 1))
(declare-fun ine_0x7ffff3a3c980 () (_ BitVec 1))
(declare-fun node_0x7ffff3a3c5b0 () (_ BitVec 64))
(declare-fun and_0x7ffff3a3c750 () (_ BitVec 64))
(declare-fun node_0x7ffff3a3c260 () (_ BitVec 64))
(declare-fun p2i_0x7ffff3a3c3b0 () (_ BitVec 64))
(declare-fun node_0x7ffff3a375d0 () (_ BitVec 64))
(declare-fun select_0x7ffff3a37770 () (_ BitVec 64))
(declare-fun ashr_0x7ffff3a3bd40 () (_ BitVec 64))
(declare-fun node_0x7ffff3a3bba0 () (_ BitVec 64))
(declare-fun node_0x7ffff3a3b6e0 () (_ BitVec 64))
(declare-fun p2i_0x7ffff3a3b860 () (_ BitVec 64))
(declare-fun node_0x7ffff3a3b270 () (_ BitVec 64))
(declare-fun LdMem_0x7ffff3a3b410 () (_ BitVec 64))
(declare-fun parg_node_0x4d45d6b0 () (_ BitVec 64))
(declare-fun parg_node_0x4d45cf10 () (_ BitVec 64))
(declare-fun node_0x7ffff39eae30 () (_ BitVec 1))
(declare-fun ine_0x7ffff3a39ce0 () (_ BitVec 1))
(declare-fun node_0x7ffff3a399f0 () (_ BitVec 32))
(declare-fun zext_0x7ffff3a397f0 () (_ BitVec 32))
(declare-fun node_0x7ffff3a39670 () (_ BitVec 32))
(declare-fun node_0x7ffff3a39220 () (_ BitVec 8))
(declare-fun LdMem_0x7ffff3a393a0 () (_ BitVec 8))
(declare-fun node_0x7ffff39e9ef0 () (_ BitVec 1))
(declare-fun ine_0x7ffff3a38580 () (_ BitVec 1))
(declare-fun node_0x7ffff3a381b0 () (_ BitVec 64))
(declare-fun and_0x7ffff3a38350 () (_ BitVec 64))
(declare-fun node_0x7ffff3a37e30 () (_ BitVec 64))
(declare-fun p2i_0x7ffff3a37fb0 () (_ BitVec 64))
(declare-fun node_0x7ffff3a674f0 () (_ BitVec 64))
(assert
 (let (($x169 (= node_0x7ffff39e63f0 (_ bv1 1))))
 (let (($x172 (not $x169)))
 (let (($x171 (= node_0x7ffff39e7da0 (_ bv1 1))))
 (let (($x248 (not $x171)))
 (let (($x249 (and $x248 $x172)))
 (let (($x3071 (= node_0x7ffff3a370e0 (_ bv0 1))))
 (and $x3071 $x249))))))))
(assert
 (let (($x322 (= node_0x7ffff3a370e0 (_ bv1 1))))
 (let (($x324 (= select_0x7ffff3a37b90 (ite $x322 carg_node_0x7ffff39e55a0 carg_node_0x7ffff39e5050))))
 (let (($x3189 (= node_0x7ffff3a370e0 iult_0x7ffff3a37260)))
 (let (($x2491 (= node_0x7ffff3a36c90 LdMem_0x7ffff3a36e10)))
 (let (($x3096 (= StMem_0x4d45f650 parg_node_0x4d45f800)))
 (let (($x2102 (= LdMem_0x7ffff3a36e10 StMem_0x4d45f650)))
 (let (($x92491 (not (= R0x7ffff39e5160 (_ bv1 1)))))
 (let (($x95663 (or $x92491 $x2102)))
 (let (($x331 (= iult_0x7ffff3a37260 (ite (bvult node_0x7ffff3a36310 node_0x7ffff3a36c90) (_ bv1 1) (_ bv0 1)))))
 (let (($x3176 (= node_0x7ffff3a36310 LdMem_0x7ffff3a36490)))
 (let (($x2375 (= StMem_0x4d45fea0 parg_node_0x4d460050)))
 (let (($x2617 (= LdMem_0x7ffff3a36490 StMem_0x4d45fea0)))
 (let (($x2540 (or $x92491 $x2617)))
 (let (($x3634 (= node_0x7ffff39e7da0 ine_0x7ffff3a356d0)))
 (let (($x225 (= ine_0x7ffff3a356d0 (ite (and (distinct node_0x7ffff3a353e0 (_ bv5 32)) true) (_ bv1 1) (_ bv0 1)))))
 (let (($x2541 (= node_0x7ffff3a35060 zext_0x7ffff3a351e0)))
 (let (($x258 (= zext_0x7ffff3a351e0 ((_ zero_extend 24) node_0x7ffff3a34400))))
 (let (($x94681 (= node_0x7ffff3a34400 LdMem_0x7ffff3a34d90)))
 (let (($x2487 (= StMem_0x4d435830 parg_node_0x4d435940)))
 (let (($x2485 (= LdMem_0x7ffff3a34d90 StMem_0x4d435830)))
 (let (($x2313 (or $x92491 $x2485)))
 (let (($x987 (= node_0x7ffff3a353e0 (_ bv1 32))))
 (let (($x1063 (= node_0x7ffff3a353e0 node_0x7ffff3a35060)))
 (let (($x2609 (or $x1063 $x987)))
 (let (($x227 (= node_0x7ffff39e6f40 (_ bv1 1))))
 (let (($x169 (= node_0x7ffff39e63f0 (_ bv1 1))))
 (let (($x172 (not $x169)))
 (let (($x1960 (or (not (and $x172 $x227)) $x987)))
 (let (($x3133 (or (not (and (not $x227) $x172)) $x1063)))
 (let (($x3118 (= node_0x7ffff39e6f40 ine_0x7ffff3a33980)))
 (let (($x235 (= ine_0x7ffff3a33980 (ite (and (distinct node_0x7ffff3a335b0 (_ bv0 64)) true) (_ bv1 1) (_ bv0 1)))))
 (let (($x5859 (= node_0x7ffff3a335b0 and_0x7ffff3a33750)))
 (let (($x240 (= and_0x7ffff3a33750 (bvand node_0x7ffff3a33240 (_ bv1 64)))))
 (let (($x244 (= p2i_0x7ffff3a333b0 carg_node_0x7ffff39e55a0)))
 (let (($x113 (= node_0x7ffff3a33240 p2i_0x7ffff3a333b0)))
 (let (($x94699 (= node_0x7ffff39e63f0 ine_0x7ffff3a32ea0)))
 (let (($x179 (= ine_0x7ffff3a32ea0 (ite (and (distinct node_0x7ffff3a32550 (_ bv5 32)) true) (_ bv1 1) (_ bv0 1)))))
 (let (($x3206 (= node_0x7ffff3a321d0 zext_0x7ffff3a32350)))
 (let (($x210 (= zext_0x7ffff3a32350 ((_ zero_extend 24) node_0x7ffff3a31d80))))
 (let (($x2653 (= node_0x7ffff3a31d80 LdMem_0x7ffff3a31f00)))
 (let (($x3103 (= StMem_0x4d4355f0 parg_node_0x4d435700)))
 (let (($x3138 (= LdMem_0x7ffff3a31f00 StMem_0x4d4355f0)))
 (let (($x3152 (or $x92491 $x3138)))
 (let (($x438 (= node_0x7ffff3a32550 (_ bv1 32))))
 (let (($x377 (= node_0x7ffff3a32550 node_0x7ffff3a321d0)))
 (let (($x3153 (or $x377 $x438)))
 (let (($x181 (= node_0x7ffff39e6aa0 (_ bv1 1))))
 (let (($x182 (not $x181)))
 (let (($x3067 (or $x182 $x438)))
 (let (($x3102 (or $x181 $x377)))
 (let (($x1785 (= node_0x7ffff39e6aa0 ine_0x7ffff3a30cc0)))
 (let (($x188 (= ine_0x7ffff3a30cc0 (ite (and (distinct node_0x7ffff3a307b0 (_ bv0 64)) true) (_ bv1 1) (_ bv0 1)))))
 (let (($x1225 (= node_0x7ffff3a307b0 and_0x7ffff3a30950)))
 (let (($x194 (= and_0x7ffff3a30950 (bvand node_0x7ffff3a30410 (_ bv1 64)))))
 (let (($x198 (= p2i_0x7ffff39ebe00 carg_node_0x7ffff39e5050)))
 (let (($x3093 (= node_0x7ffff3a30410 p2i_0x7ffff39ebe00)))
 (and $x3093 $x198 $x194 $x1225 $x188 $x1785 $x3102 $x3067 $x3153 $x3152 $x3138 $x3103 $x2653 $x210 $x3206 $x179 $x94699 $x113 $x244 $x240 $x5859 $x235 $x3118 $x3133 $x1960 $x2609 $x2313 $x2485 $x2487 $x94681 $x258 $x2541 $x225 $x3634 $x2540 $x2617 $x2375 $x3176 $x331 $x95663 $x2102 $x3096 $x2491 $x3189 $x324))))))))))))))))))))))))))))))))))))))))))))))))))))))))))
(assert
 (= node_0x7ffff3a37a10 select_0x7ffff3a37b90))
(assert
 (let (($x169 (= node_0x7ffff39e63f0 (_ bv1 1))))
 (let (($x172 (not $x169)))
 (let (($x171 (= node_0x7ffff39e7da0 (_ bv1 1))))
 (let (($x248 (not $x171)))
 (let (($x249 (and $x248 $x172)))
 (let (($x204 (= node_0x7ffff39eda50 (_ bv1 1))))
 (let (($x298 (and $x204 $x249)))
 (let (($x278 (= node_0x7ffff39ee630 (_ bv1 1))))
 (let (($x501 (not $x278)))
 (let (($x503 (or (and (not $x204) $x249) (and $x501 $x298))))
 (let (($x201 (= node_0x7ffff39f0740 (_ bv1 1))))
 (let (($x519 (and $x201 $x503)))
 (let (($x200 (= node_0x7ffff39f1400 (_ bv1 1))))
 (let (($x689 (and $x200 $x519)))
 (let (($x576 (or (and (not $x201) $x503) (and (not $x200) $x519) (and (not (= node_0x7ffff39f2180 (_ bv1 1))) $x689))))
 (let (($x351 (= node_0x7ffff39f5df0 (_ bv1 1))))
 (let (($x564 (and $x351 $x576)))
 (let (($x557 (= node_0x7ffff39f6aa0 (_ bv1 1))))
 (let (($x765 (not $x557)))
 (let (($x766 (and $x765 $x564)))
 (let (($x764 (= node_0x7ffff39f9250 (_ bv1 1))))
 (let (($x781 (not $x764)))
 (or (and (not (= node_0x7ffff39f84f0 (_ bv1 1))) (and $x557 $x564)) (and $x781 $x766)))))))))))))))))))))))))
(assert
 (let (($x3202 (= node_0x7ffff3a37a10 (_ bv0 64))))
 (let (($x3059 (or $x3202 (and (distinct node_0x7ffff3a37a10 (_ bv0 64)) true))))
 (let (($x2996 (and (= gep_0x7ffff3a67750 (ite $x3202 (_ bv0 64) node_0x7ffff3a37a10)) $x3059)))
 (let (($x756 (= node_0x7ffff3a4e770 (_ bv18446744073709551613 64))))
 (let ((?x757 (ite $x756 (_ bv1 1) (_ bv0 1))))
 (let (($x758 (= ieq_0x7ffff3a4f140 ?x757)))
 (let (($x2949 (= node_0x7ffff39f84f0 ieq_0x7ffff3a4f140)))
 (let (($x3124 (= node_0x7ffff39f0740 iult_0x7ffff3a441e0)))
 (let (($x540 (= node_0x7ffff3a418f0 (_ bv0 64))))
 (let (($x542 (or $x540 (= (_ bv8 64) (_ bv0 64)))))
 (let (($x545 (and (= mul_0x7ffff3a43fb0 (bvmul node_0x7ffff3a418f0 (_ bv8 64))) (or $x542 (and (distinct mul_0x7ffff3a43fb0 (_ bv0 64)) true)))))
 (let (($x2968 (= node_0x7ffff3a43e10 mul_0x7ffff3a43fb0)))
 (let (($x526 (= iult_0x7ffff3a441e0 (ite (bvult node_0x7ffff3a438f0 node_0x7ffff3a43e10) (_ bv1 1) (_ bv0 1)))))
 (let (($x2966 (= node_0x7ffff3a438f0 LdMem_0x7ffff3a43a70)))
 (let (($x2963 (= StMem_0x4d479820 parg_node_0x4d479960)))
 (let (($x2967 (= LdMem_0x7ffff3a43a70 StMem_0x4d479820)))
 (let (($x92491 (not (= R0x7ffff39e5160 (_ bv1 1)))))
 (let (($x2962 (or $x92491 $x2967)))
 (let (($x568 (= islt_0x7ffff3a450e0 (ite (bvslt (_ bv0 64) node_0x7ffff3a418f0) (_ bv1 1) (_ bv0 1)))))
 (let (($x3069 (= node_0x7ffff39f1400 islt_0x7ffff3a450e0)))
 (let (($x3104 (= node_0x7ffff39f5df0 iult_0x7ffff3a481c0)))
 (let (($x560 (= iult_0x7ffff3a481c0 (ite (bvult (_ bv1 64) node_0x7ffff3a47da0) (_ bv1 1) (_ bv0 1)))))
 (let (($x3135 (= node_0x7ffff3a47da0 udiv_0x7ffff3a47f40)))
 (let (($x726 (or (or (= node_0x7ffff3a47790 (_ bv0 64)) (= (_ bv10 64) (_ bv0 64))) (and (distinct udiv_0x7ffff3a47f40 (_ bv0 64)) true))))
 (let (($x670 (and (= udiv_0x7ffff3a47f40 (bvudiv node_0x7ffff3a47790 (_ bv10 64))) $x726)))
 (let (($x3009 (= node_0x7ffff3a47790 LdMem_0x7ffff3a47910)))
 (let (($x3099 (= LdMem_0x7ffff3a47910 StMem_0x4d45fea0)))
 (let (($x3015 (= LdMem_0x7ffff3a47910 StMem_0x4d45f650)))
 (let (($x2956 (or $x3015 $x3099)))
 (let (($x315 (= R0x28f6d490 (_ bv1 1))))
 (let (($x414 (not $x315)))
 (let (($x2957 (or $x414 $x3099)))
 (let (($x1274 (= R0x28f75380 (_ bv1 1))))
 (let (($x1108 (not $x1274)))
 (let (($x3060 (or $x1108 $x3015)))
 (let (($x734 (= islt_0x7ffff3a4ec30 (ite (bvslt node_0x7ffff3a4e770 (_ bv5 64)) (_ bv1 1) (_ bv0 1)))))
 (let (($x3040 (= node_0x7ffff39f6aa0 islt_0x7ffff3a4ec30)))
 (let (($x4344 (= node_0x7ffff39f9250 ieq_0x7ffff3a4f4f0)))
 (let (($x770 (= node_0x7ffff3a4e770 (_ bv5 64))))
 (let ((?x771 (ite $x770 (_ bv1 1) (_ bv0 1))))
 (let (($x772 (= ieq_0x7ffff3a4f4f0 ?x771)))
 (let (($x3079 (= node_0x7ffff3a4e770 p2i_0x7ffff3a4e8f0)))
 (let (($x738 (= p2i_0x7ffff3a4e8f0 node_0x7ffff3a34930)))
 (let (($x3057 (= node_0x7ffff3a34930 LdMem_0x7ffff3a34ad0)))
 (let (($x3100 (= StMem_0x4d45e630 parg_node_0x4d45e7e0)))
 (let (($x3110 (= StMem_0x4d45dd80 parg_node_0x4d45df30)))
 (let (($x3953 (= LdMem_0x7ffff3a34ad0 StMem_0x4d45e630)))
 (let (($x3150 (= LdMem_0x7ffff3a34ad0 StMem_0x4d45dd80)))
 (let (($x3074 (or $x3150 $x3953)))
 (let (($x3085 (= R0x28f6d490 node_0x7ffff3a370e0)))
 (let (($x3089 (or $x414 $x3953)))
 (let (($x2985 (or $x1108 $x3150)))
 (let (($x366 (= xor_0x28f75560 (bvxor node_0x7ffff3a370e0 (_ bv1 1)))))
 (let (($x3052 (= R0x28f75380 xor_0x28f75560)))
 (let (($x3005 (= node_0x7ffff39f2180 islt_0x7ffff3a46ec0)))
 (let (($x616 (= islt_0x7ffff3a46ec0 (ite (bvslt (_ bv1 64) node_0x7ffff3a418f0) (_ bv1 1) (_ bv0 1)))))
 (let (($x1284 (= node_0x7ffff3a418f0 node_0x7ffff3a40cf0)))
 (let (($x1107 (= node_0x7ffff3a418f0 node_0x7ffff3a3bf70)))
 (let (($x3075 (or $x1107 $x1284)))
 (let (($x3165 (= node_0x7ffff39ee630 ine_0x7ffff3a41510)))
 (let (($x509 (= ine_0x7ffff3a41510 (ite (and (distinct node_0x7ffff3a410f0 (_ bv0 64)) true) (_ bv1 1) (_ bv0 1)))))
 (let (($x3192 (= node_0x7ffff3a410f0 srem_0x7ffff3a41290)))
 (let (($x514 (= srem_0x7ffff3a41290 (bvsrem node_0x7ffff3a40cf0 node_0x7ffff3a401e0))))
 (let (($x518 (= add_0x7ffff3a40e60 (bvadd node_0x7ffff3a3bf70 node_0x7ffff3a3bf70))))
 (let (($x3070 (= node_0x7ffff3a40cf0 add_0x7ffff3a40e60)))
 (let (($x278 (= node_0x7ffff39ee630 (_ bv1 1))))
 (let (($x501 (not $x278)))
 (let (($x169 (= node_0x7ffff39e63f0 (_ bv1 1))))
 (let (($x172 (not $x169)))
 (let (($x171 (= node_0x7ffff39e7da0 (_ bv1 1))))
 (let (($x248 (not $x171)))
 (let (($x249 (and $x248 $x172)))
 (let (($x204 (= node_0x7ffff39eda50 (_ bv1 1))))
 (let (($x298 (and $x204 $x249)))
 (let (($x3080 (or (not (and $x298 $x501)) $x1284)))
 (let (($x3065 (or (not (and $x249 (not $x204))) $x1107)))
 (let (($x2995 (= node_0x7ffff39eda50 ine_0x7ffff3a40940)))
 (let (($x319 (= ine_0x7ffff3a40940 (ite (and (distinct node_0x7ffff3a40550 (_ bv0 64)) true) (_ bv1 1) (_ bv0 1)))))
 (let (($x2989 (= node_0x7ffff3a40550 srem_0x7ffff3a406c0)))
 (let (($x3155 (= node_0x7ffff3a3fe10 ashr_0x7ffff3a3ffb0)))
 (let (($x488 (or (or (= node_0x7ffff3a3fa90 (_ bv0 64)) (bvsge (_ bv2 64) (_ bv10 64))) (and (distinct ashr_0x7ffff3a3ffb0 (_ bv0 64)) true))))
 (let (($x489 (and (= ashr_0x7ffff3a3ffb0 (bvashr node_0x7ffff3a3fa90 (_ bv2 64))) $x488)))
 (let (($x3020 (= node_0x7ffff3a3fa90 p2i_0x7ffff3a3fc10)))
 (let (($x493 (= p2i_0x7ffff3a3fc10 node_0x7ffff3a3f620)))
 (let (($x3180 (= node_0x7ffff3a3f620 LdMem_0x7ffff3a3f7c0)))
 (let (($x3084 (= LdMem_0x7ffff3a3f7c0 StMem_0x4d45d500)))
 (let (($x3035 (= LdMem_0x7ffff3a3f7c0 StMem_0x4d45cd60)))
 (let (($x3169 (or $x3035 $x3084)))
 (let (($x3047 (or $x414 $x3084)))
 (let (($x3175 (or $x1108 $x3035)))
 (let (($x1282 (= node_0x7ffff3a401e0 (_ bv1 64))))
 (let (($x152 (= node_0x7ffff3a401e0 node_0x7ffff3a3fe10)))
 (let (($x3154 (or $x152 $x1282)))
 (let (($x3179 (or (not (and $x249 (= node_0x7ffff39ecc40 (_ bv1 1)))) $x1282)))
 (let (($x3139 (or (not (and (not (= node_0x7ffff39ecc40 (_ bv1 1))) $x249)) $x152)))
 (let (($x3242 (= node_0x7ffff39ecc40 ine_0x7ffff3a3e0c0)))
 (let (($x426 (= ine_0x7ffff3a3e0c0 (ite (and (distinct node_0x7ffff3a3ddd0 (_ bv5 32)) true) (_ bv1 1) (_ bv0 1)))))
 (let (($x2951 (= node_0x7ffff3a3da50 zext_0x7ffff3a3dbd0)))
 (let (($x463 (= zext_0x7ffff3a3dbd0 ((_ zero_extend 24) node_0x7ffff3a3d600))))
 (let (($x4379 (= node_0x7ffff3a3d600 LdMem_0x7ffff3a3d780)))
 (let (($x3149 (= LdMem_0x7ffff3a3d780 StMem_0x4d435830)))
 (let (($x3185 (= LdMem_0x7ffff3a3d780 StMem_0x4d4355f0)))
 (let (($x3164 (or $x3185 $x3149)))
 (let (($x3145 (or $x1108 $x3149)))
 (let (($x3115 (or $x414 $x3185)))
 (let (($x1191 (= node_0x7ffff3a3ddd0 (_ bv1 32))))
 (let (($x1244 (= node_0x7ffff3a3ddd0 node_0x7ffff3a3da50)))
 (let (($x3090 (or $x1244 $x1191)))
 (let (($x3125 (or (not (and $x249 (= node_0x7ffff39ebcb0 (_ bv1 1)))) $x1191)))
 (let (($x2953 (or (not (and (not (= node_0x7ffff39ebcb0 (_ bv1 1))) $x249)) $x1244)))
 (let (($x3188 (= node_0x7ffff39ebcb0 ine_0x7ffff3a3c980)))
 (let (($x436 (= ine_0x7ffff3a3c980 (ite (and (distinct node_0x7ffff3a3c5b0 (_ bv0 64)) true) (_ bv1 1) (_ bv0 1)))))
 (let (($x3248 (= node_0x7ffff3a3c5b0 and_0x7ffff3a3c750)))
 (let (($x441 (= and_0x7ffff3a3c750 (bvand node_0x7ffff3a3c260 (_ bv1 64)))))
 (let (($x3129 (= node_0x7ffff3a3c260 p2i_0x7ffff3a3c3b0)))
 (let (($x445 (= p2i_0x7ffff3a3c3b0 node_0x7ffff3a375d0)))
 (let (($x322 (= node_0x7ffff3a370e0 (_ bv1 1))))
 (let (($x449 (= select_0x7ffff3a37770 (ite $x322 carg_node_0x7ffff39e5050 carg_node_0x7ffff39e55a0))))
 (let (($x3134 (= node_0x7ffff3a375d0 select_0x7ffff3a37770)))
 (let (($x294 (= srem_0x7ffff3a406c0 (bvsrem node_0x7ffff3a3bf70 node_0x7ffff3a401e0))))
 (let (($x2945 (= node_0x7ffff3a3bba0 ashr_0x7ffff3a3bd40)))
 (let (($x398 (or (or (= node_0x7ffff3a3b6e0 (_ bv0 64)) (bvsge (_ bv2 64) (_ bv10 64))) (and (distinct ashr_0x7ffff3a3bd40 (_ bv0 64)) true))))
 (let ((?x391 (bvashr node_0x7ffff3a3b6e0 (_ bv2 64))))
 (let (($x392 (= ashr_0x7ffff3a3bd40 ?x391)))
 (let (($x399 (and $x392 $x398)))
 (let (($x2954 (= node_0x7ffff3a3b6e0 p2i_0x7ffff3a3b860)))
 (let (($x403 (= p2i_0x7ffff3a3b860 node_0x7ffff3a3b270)))
 (let (($x3957 (= node_0x7ffff3a3b270 LdMem_0x7ffff3a3b410)))
 (let (($x2960 (= StMem_0x4d45d500 parg_node_0x4d45d6b0)))
 (let (($x3174 (= StMem_0x4d45cd60 parg_node_0x4d45cf10)))
 (let (($x2990 (= LdMem_0x7ffff3a3b410 StMem_0x4d45d500)))
 (let (($x2970 (= LdMem_0x7ffff3a3b410 StMem_0x4d45cd60)))
 (let (($x2955 (or $x2970 $x2990)))
 (let (($x2942 (or $x1108 $x2990)))
 (let (($x2964 (or $x414 $x2970)))
 (let (($x1087 (= node_0x7ffff3a3bf70 (_ bv1 64))))
 (let (($x978 (= node_0x7ffff3a3bf70 node_0x7ffff3a3bba0)))
 (let (($x3039 (or $x978 $x1087)))
 (let (($x3034 (or (not (and $x249 (= node_0x7ffff39eae30 (_ bv1 1)))) $x1087)))
 (let (($x3144 (or (not (and (not (= node_0x7ffff39eae30 (_ bv1 1))) $x249)) $x978)))
 (let (($x3025 (= node_0x7ffff39eae30 ine_0x7ffff3a39ce0)))
 (let (($x283 (= ine_0x7ffff3a39ce0 (ite (and (distinct node_0x7ffff3a399f0 (_ bv5 32)) true) (_ bv1 1) (_ bv0 1)))))
 (let (($x2950 (= node_0x7ffff3a39670 zext_0x7ffff3a397f0)))
 (let (($x359 (= zext_0x7ffff3a397f0 ((_ zero_extend 24) node_0x7ffff3a39220))))
 (let (($x2944 (= node_0x7ffff3a39220 LdMem_0x7ffff3a393a0)))
 (let (($x2969 (= LdMem_0x7ffff3a393a0 StMem_0x4d435830)))
 (let (($x2974 (= LdMem_0x7ffff3a393a0 StMem_0x4d4355f0)))
 (let (($x2984 (or $x2974 $x2969)))
 (let (($x2975 (or $x414 $x2969)))
 (let (($x2959 (or $x1108 $x2974)))
 (let (($x73 (= node_0x7ffff3a399f0 (_ bv1 32))))
 (let (($x815 (= node_0x7ffff3a399f0 node_0x7ffff3a39670)))
 (let (($x3010 (or $x815 $x73)))
 (let (($x2994 (or (not (and $x249 (= node_0x7ffff39e9ef0 (_ bv1 1)))) $x73)))
 (let (($x2948 (or (not (and (not (= node_0x7ffff39e9ef0 (_ bv1 1))) $x249)) $x815)))
 (let (($x3105 (= node_0x7ffff39e9ef0 ine_0x7ffff3a38580)))
 (let (($x296 (= ine_0x7ffff3a38580 (ite (and (distinct node_0x7ffff3a381b0 (_ bv0 64)) true) (_ bv1 1) (_ bv0 1)))))
 (let (($x3109 (= node_0x7ffff3a381b0 and_0x7ffff3a38350)))
 (let (($x311 (= and_0x7ffff3a38350 (bvand node_0x7ffff3a37e30 (_ bv1 64)))))
 (let (($x300 (= p2i_0x7ffff3a37fb0 node_0x7ffff3a37a10)))
 (let (($x3004 (= node_0x7ffff3a37e30 p2i_0x7ffff3a37fb0)))
 (and $x3004 $x300 $x311 $x3109 $x296 $x3105 $x2948 $x2994 $x3010 $x2959 $x2975 $x2984 $x2944 $x359 $x2950 $x283 $x3025 $x3144 $x3034 $x3039 $x2964 $x2942 $x2955 $x3174 $x2960 $x3957 $x403 $x2954 $x399 $x2945 $x294 $x3134 $x449 $x445 $x3129 $x441 $x3248 $x436 $x3188 $x2953 $x3125 $x3090 $x3115 $x3145 $x3164 $x4379 $x463 $x2951 $x426 $x3242 $x3139 $x3179 $x3154 $x3175 $x3047 $x3169 $x3180 $x493 $x3020 $x489 $x3155 $x2989 $x319 $x2995 $x3065 $x3080 $x3070 $x518 $x514 $x3192 $x509 $x3165 $x3075 $x616 $x3005 $x3052 $x366 $x2985 $x3089 $x3085 $x3074 $x3110 $x3100 $x3057 $x738 $x3079 $x772 $x4344 $x3040 $x734 $x3060 $x2957 $x2956 $x3009 $x670 $x3135 $x560 $x3104 $x3069 $x568 $x2962 $x2967 $x2963 $x2966 $x526 $x2968 $x545 $x3124 $x2949 $x758 $x2996)))))))))))))))))))))))))))))))))))))))))))))))))))))))))))))))))))))))))))))))))))))))))))))))))))))))))))))))))))))))))))))))))))))))))))))))))))))))))))))))))))
(assert
 (= node_0x7ffff3a674f0 gep_0x7ffff3a67750))
(assert
 (= node_0x7ffff3a674f0 (_ bv0 64)))
(minimize node_0x7ffff39f9250)
(minimize node_0x7ffff3a36310)
(maximize node_0x7ffff3a674f0)
(maximize StMem_0x4d45e630)
(maximize node_0x7ffff39f6aa0)
(minimize p2i_0x7ffff3a3fc10)
(maximize node_0x7ffff3a3c5b0)
(minimize and_0x7ffff3a30950)
(minimize p2i_0x7ffff3a4e8f0)
(maximize islt_0x7ffff3a46ec0)
(minimize node_0x7ffff39f1400)
(maximize ine_0x7ffff3a38580)
(minimize carg_node_0x7ffff39e55a0)
(minimize LdMem_0x7ffff3a47910)
(minimize node_0x7ffff39eae30)
(maximize node_0x7ffff3a3b6e0)
(minimize node_0x7ffff3a47da0)
(maximize node_0x7ffff3a47790)
(maximize node_0x7ffff39eae30)
(minimize ashr_0x7ffff3a3bd40)
(minimize LdMem_0x7ffff3a3d780)
(minimize node_0x7ffff3a3da50)
(minimize zext_0x7ffff3a397f0)
(minimize node_0x7ffff3a3b270)
(maximize xor_0x28f75560)
(minimize p2i_0x7ffff3a333b0)
(minimize p2i_0x7ffff39ebe00)
(minimize node_0x7ffff3a31d80)
(maximize LdMem_0x7ffff3a36490)
(maximize node_0x7ffff3a370e0)
(maximize LdMem_0x7ffff3a3b410)
(maximize LdMem_0x7ffff3a31f00)
(maximize parg_node_0x4d45df30)
(minimize StMem_0x4d45d500)
(check-sat)
(get-objectives)
